120
150
67
99
41
42
29
48
46
76
72
22
52
42
50
25
42
37
33
71
29
67
54
47
69
69
67
34
37
57
64
64
92
82
24
33
32
69
92
100
81
80
34
95
46
50
78
22
82
25
34
72
70
21
80
82
92
42
87
34
25
99
70
39
72
60
57
29
86
29
78
39
25
40
40
45
70
87
29
22
28
65
63
25
55
84
95
38
96
68
55
34
83
83
36
46
42
67
71
23
51
30
28
51
65
69
38
99
28
91
34
59
25
43
80
51
87
40
63
30
48
100
